NAME          
ROWS
 N  OBJ
 L  c1
 L  c2
 L  c3
 L  c4
COLUMNS
    MARKER    'MARKER'                 'INTORG'
    x[1]      c1        190
    x[1]      c2        797
    x[1]      c3        183
    x[1]      c4        304
    x[1]      OBJ       -8
    x[2]      c1        63
    x[2]      c2        335
    x[2]      c3        287
    x[2]      c4        927
    x[2]      OBJ       -51
    x[3]      c1        906
    x[3]      c2        743
    x[3]      c3        210
    x[3]      c4        58
    x[3]      OBJ       -431
    x[4]      c1        699
    x[4]      c2        829
    x[4]      c3        176
    x[4]      c4        699
    x[4]      OBJ       -711
    x[5]      c1        355
    x[5]      c2        936
    x[5]      c3        624
    x[5]      c4        390
    x[5]      OBJ       -991
    x[6]      c1        450
    x[6]      c2        236
    x[6]      c3        418
    x[6]      c4        937
    x[6]      OBJ       -233
    x[7]      c1        634
    x[7]      c2        649
    x[7]      c3        945
    x[7]      c4        525
    x[7]      OBJ       -458
    x[8]      c1        651
    x[8]      c2        154
    x[8]      c3        233
    x[8]      c4        692
    x[8]      OBJ       -484
    x[9]      c1        637
    x[9]      c2        541
    x[9]      c3        479
    x[9]      c4        356
    x[9]      OBJ       -985
    x[10]     c1        801
    x[10]     c2        355
    x[10]     c3        758
    x[10]     c4        683
    x[10]     OBJ       -670
    x[11]     c1        406
    x[11]     c2        835
    x[11]     c3        991
    x[11]     c4        440
    x[11]     OBJ       -535
    x[12]     c1        328
    x[12]     c2        460
    x[12]     c3        905
    x[12]     c4        7
    x[12]     OBJ       -507
    x[13]     c1        20
    x[13]     c2        960
    x[13]     c3        818
    x[13]     c4        106
    x[13]     OBJ       -279
    x[14]     c1        563
    x[14]     c2        60
    x[14]     c3        236
    x[14]     c4        963
    x[14]     OBJ       -412
    x[15]     c1        802
    x[15]     c2        964
    x[15]     c3        983
    x[15]     c4        722
    x[15]     OBJ       -983
    x[16]     c1        276
    x[16]     c2        618
    x[16]     c3        464
    x[16]     c4        730
    x[16]     OBJ       -230
    x[17]     c1        778
    x[17]     c2        378
    x[17]     c3        952
    x[17]     c4        191
    x[17]     OBJ       -927
    x[18]     c1        680
    x[18]     c2        656
    x[18]     c3        882
    x[18]     c4        764
    x[18]     OBJ       -605
    x[19]     c1        955
    x[19]     c2        229
    x[19]     c3        582
    x[19]     c4        834
    x[19]     OBJ       -997
    x[20]     c1        826
    x[20]     c2        148
    x[20]     c3        238
    x[20]     c4        252
    x[20]     OBJ       -992
    x[21]     c1        378
    x[21]     c2        48
    x[21]     c3        946
    x[21]     c4        207
    x[21]     OBJ       -778
    x[22]     c1        755
    x[22]     c2        352
    x[22]     c3        904
    x[22]     c4        252
    x[22]     OBJ       -414
    x[23]     c1        203
    x[23]     c2        433
    x[23]     c3        543
    x[23]     c4        524
    x[23]     OBJ       -733
    x[24]     c1        523
    x[24]     c2        742
    x[24]     c3        748
    x[24]     c4        193
    x[24]     OBJ       -129
    x[25]     c1        741
    x[25]     c2        882
    x[25]     c3        431
    x[25]     c4        638
    x[25]     OBJ       -634
    x[26]     c1        703
    x[26]     c2        492
    x[26]     c3        257
    x[26]     c4        251
    x[26]     OBJ       -977
    x[27]     c1        773
    x[27]     c2        438
    x[27]     c3        382
    x[27]     c4        940
    x[27]     OBJ       -898
    x[28]     c1        538
    x[28]     c2        762
    x[28]     c3        54
    x[28]     c4        816
    x[28]     OBJ       -336
    x[29]     c1        491
    x[29]     c2        311
    x[29]     c3        210
    x[29]     c4        239
    x[29]     OBJ       -350
    x[30]     c1        359
    x[30]     c2        615
    x[30]     c3        995
    x[30]     c4        550
    x[30]     OBJ       -98
RHS
    rhs       c1        8242
    rhs       c2        7979
    rhs       c3        8417
    rhs       c4        7595
RANGES
BOUNDS
 BV bounds    x[1]
 BV bounds    x[2]
 BV bounds    x[3]
 BV bounds    x[4]
 BV bounds    x[5]
 BV bounds    x[6]
 BV bounds    x[7]
 BV bounds    x[8]
 BV bounds    x[9]
 BV bounds    x[10]
 BV bounds    x[11]
 BV bounds    x[12]
 BV bounds    x[13]
 BV bounds    x[14]
 BV bounds    x[15]
 BV bounds    x[16]
 BV bounds    x[17]
 BV bounds    x[18]
 BV bounds    x[19]
 BV bounds    x[20]
 BV bounds    x[21]
 BV bounds    x[22]
 BV bounds    x[23]
 BV bounds    x[24]
 BV bounds    x[25]
 BV bounds    x[26]
 BV bounds    x[27]
 BV bounds    x[28]
 BV bounds    x[29]
 BV bounds    x[30]
ENDATA
